2
1000 3
46
150 1 3
151 1 3
152 1 2
153 1 2
155 1 3
156 1 1
157 1 2
158 1 1
159 1 2
160 1 2
161 1 3
162 1 4
163 1 4
164 1 1
165 1 1
166 1 4
167 1 1
168 1 2
169 1 3
170 1 5
171 1 6
172 1 1
173 1 1
174 1 4
177 1 1
178 1 2
179 1 4
180 1 3
181 1 1
183 1 4
184 1 2
185 1 2
186 1 3
187 1 2
188 1 3
189 1 5
190 1 4
191 1 4
192 1 1
194 1 3
195 1 2
196 1 5
197 1 3
198 1 3
199 1 1
200 1 1
